14 42 40 53 1 32 70 
37 91 76 81 12 54 25 
48 88 6 10 34 
47 82 9 20 72 
39 23 67 41 43 13 95 
31 7 36 19 24 77 
63 30 90 49 60 96 
83 85 44 87 50 100 
28 27 62 18 97 93 94 58 
3 33 29 79 78 66 35 
52 92 15 86 98 17 5 
75 51 55 4 21 26 
2 59 61 16 84 46 80 
45 22 57 56 74 
65 71 68 89 
69 11 8 
73 
64 
99 
38 

